[2026-03-23T15:59:50.236Z] Pipeline "set_exp_3_exp_3_n020_c003_g001" → 2026_03_23_15_59_50_set_exp_3_exp_3_n020_c003_g001_max.sol
Set parameter WLSAccessID
Set parameter WLSSecret
Set parameter LicenseID to value 2792458
Set parameter LogFile to value "gurobi.log"
Using license file /root/gurobi.lic
Academic license 2792458 - for non-commercial use only - registered to an___@studenti.unipg.it

Gurobi Optimizer version 13.0.1 build v13.0.1rc0 (linux64 - "Ubuntu 24.04.4 LTS")
Copyright (c) 2026, Gurobi Optimization, LLC

Warning: Duplicate section found (read 'binary') - Is a variable name equal to an LP file format keyword?
Warning: Duplicate section found (read 'binary') - Is a variable name equal to an LP file format keyword?
Warning: Duplicate section found (read 'binary') - Is a variable name equal to an LP file format keyword?
Warning: Duplicate section found (read 'binary') - Is a variable name equal to an LP file format keyword?
Warning: Duplicate section found (read 'binary') - Is a variable name equal to an LP file format keyword?
Warning: Duplicate section found (read 'binary') - Is a variable name equal to an LP file format keyword?
Warning: Duplicate section found (read 'binary') - Is a variable name equal to an LP file format keyword?
Warning: Duplicate section found (read 'binary') - Is a variable name equal to an LP file format keyword?
Warning: Duplicate section found (read 'binary') - Is a variable name equal to an LP file format keyword?
Warning: Duplicate section found (read 'binary') - Is a variable name equal to an LP file format keyword?
Warning: Further warnings of this type will be omitted.
Read LP format model from file /root/bgw/data/uploads/2026_03_23_15_59_50_set_exp_3_exp_3_n020_c003_g001_max.lp
Reading time = 0.01 seconds
: 2783 rows, 310 columns, 8223 nonzeros

Using Gurobi shared library /opt/gurobi1301/linux64/lib/libgurobi.so.13.0.1

CPU model: AMD EPYC-Genoa Processor, instruction set [SSE2|AVX|AVX2|AVX512]
Thread count: 16 physical cores, 16 logical processors, using up to 16 threads

Academic license 2792458 - for non-commercial use only - registered to an___@studenti.unipg.it
Optimize a model with 2783 rows, 310 columns and 8223 nonzeros (Max)
Model fingerprint: 0x0cfc44ec
Model has 7 linear objective coefficients
Variable types: 27 continuous, 283 integer (283 binary)
Coefficient statistics:
  Matrix range     [1e+00, 2e+01]
  Objective range  [1e+00, 1e+00]
  Bounds range     [1e+00, 1e+00]
  RHS range        [1e+00, 2e+01]

Found heuristic solution: objective 7.0000000
Presolve removed 473 rows and 101 columns
Presolve time: 0.02s
Presolved: 2310 rows, 209 columns, 7066 nonzeros
Variable types: 0 continuous, 209 integer (201 binary)

Root relaxation: objective 3.100000e+01, 127 iterations, 0.01 seconds (0.01 work units)

    Nodes    |    Current Node    |     Objective Bounds      |     Work
 Expl Unexpl |  Obj  Depth IntInf | Incumbent    BestBd   Gap | It/Node Time

     0     0   31.00000    0   16    7.00000   31.00000   343%     -    0s
H    0     0                      20.0000000   31.00000  55.0%     -    0s
     0     0   31.00000    0   14   20.00000   31.00000  55.0%     -    0s
     0     0   31.00000    0   18   20.00000   31.00000  55.0%     -    0s
     0     0   31.00000    0   12   20.00000   31.00000  55.0%     -    0s
     0     0   31.00000    0   16   20.00000   31.00000  55.0%     -    0s
     0     0   31.00000    0   16   20.00000   31.00000  55.0%     -    0s
     0     0   31.00000    0   21   20.00000   31.00000  55.0%     -    0s
     0     0   31.00000    0   10   20.00000   31.00000  55.0%     -    0s
     0     0   31.00000    0   18   20.00000   31.00000  55.0%     -    0s
     0     0   31.00000    0   17   20.00000   31.00000  55.0%     -    0s
     0     0   31.00000    0   10   20.00000   31.00000  55.0%     -    0s
     0     0   31.00000    0   16   20.00000   31.00000  55.0%     -    0s
     0     0   31.00000    0   16   20.00000   31.00000  55.0%     -    0s
     0     0   28.00000    0   19   20.00000   28.00000  40.0%     -    0s
     0     0   28.00000    0   12   20.00000   28.00000  40.0%     -    0s
     0     0   28.00000    0   14   20.00000   28.00000  40.0%     -    0s
     0     0   28.00000    0   19   20.00000   28.00000  40.0%     -    0s
     0     0   28.00000    0   10   20.00000   28.00000  40.0%     -    0s
     0     0   28.00000    0   10   20.00000   28.00000  40.0%     -    0s
     0     0   28.00000    0   10   20.00000   28.00000  40.0%     -    0s
     0     2   28.00000    0   10   20.00000   28.00000  40.0%     -    0s

Cutting planes:
  Cover: 2
  Inf proof: 22

Explored 1077 nodes (44300 simplex iterations) in 0.55 seconds (0.54 work units)
Thread count was 16 (of 16 available processors)

Solution count 2: 20 7 

Optimal solution found (tolerance 1.00e-04)
Best objective 2.000000000000e+01, best bound 2.000000000000e+01, gap 0.0000%

Wrote result file '/root/bgw/data/results/2026_03_23_15_59_50_set_exp_3_exp_3_n020_c003_g001_max.sol'

